56
171
70
28
256
135
121
158
184
236
40
182
106
159
154
168
124
107
249
210
119
219
253
123
164
222
64
235
28
120
190
58
88
201
120
171
102
7
62
229
81
251
237
249
155
150
162
19
208
100
8
142
107
119
251
6
161
255
193
42
99
250
81
200
211
121
168
16
115
80
179
7
181
158
53
198
175
97
76
199
195
97
131
96
240
172
58
163
130
251
214
111
15
8
67
179
213
171
51
242
